[[7, 35, 53, 19, 14, 59, 11, 66, 65, 38, 10, 58, 31, 72, 39], [9, 25, 55, 18, 50, 32, 44, 3, 24, 49, 16, 63, 23], [56, 43, 41, 42, 64, 22, 62, 73, 33, 2, 28, 74, 30, 61, 21], [48, 29, 5, 47, 36, 69, 71, 60, 70, 20, 37, 15, 57, 27, 13, 54], [52, 8, 46, 34, 67, 45, 4, 76, 75, 68, 6, 51, 17, 40, 12, 26]]